Instance name : RC101
Authors : bauke
Date :    21-05-13
Reference : N/A
Solution
Route 1 : 5 45 2 7 6 8 3 1 70 100
Route 2 : 14 47 12 73 79 46 4 60
Route 3 : 27 29 31 30 34 26 32 93
Route 4 : 28 33 85 89 91
Route 5 : 39 42 44 61 81 54 96
Route 6 : 59 75 87 97 58 77
Route 7 : 63 76 51 22 49 20 24
Route 8 : 64 90 84 56 66
Route 9 : 65 52 99 57 86 74
Route 10 : 69 98 88 53 78 55 68
Route 11 : 72 36 38 41 40 43 37 35
Route 12 : 82 11 15 16 9 10 13 17
Route 13 : 83 23 21 19 18 48 25
Route 14 : 92 95 62 67 71 94 50 80

